; benchmark generated from python API
(set-info :status unknown)
(declare-fun x_month () (_ BitVec 32))
(declare-fun x_year () (_ BitVec 32))
(declare-fun x_day () (_ BitVec 32))
(assert
 (let (($x978 (or (= (_ bv4 32) x_month) (= (_ bv6 32) x_month) (= (_ bv9 32) x_month) (= (_ bv11 32) x_month))))
 (let (($x3353 (and (= (_ bv0 32) (bvsmod x_year (_ bv4 32))) (and (distinct (_ bv0 32) (bvsmod x_year (_ bv100 32))) true))))
 (let ((?x4147 (ite (= (_ bv2 32) x_month) (ite (or $x3353 (= (_ bv0 32) (bvsmod x_year (_ bv400 32)))) (_ bv29 32) (_ bv28 32)) (ite $x978 (_ bv30 32) (_ bv31 32)))))
 (let (($x6979 (bvsle x_day ?x4147)))
 (let (($x3225 (bvsle (_ bv1 32) x_day)))
 (let (($x2729 (bvsle (_ bv1 32) x_month)))
 (let (($x416 (bvsge (_ bv12 32) x_month)))
 (let (($x1255 (bvsle (_ bv1901 32) x_year)))
 (or (and (= (_ bv1900 32) x_year) (bvsle (_ bv3 32) x_month) $x416 $x3225 $x6979) (and $x1255 (bvsge (_ bv2099 32) x_year) $x2729 $x416 $x3225 $x6979) (and (= (_ bv2100 32) x_year) $x2729 (bvsge (_ bv2 32) x_month) $x3225 $x6979)))))))))))
(assert
 (let (($x3499 (or (bvslt (_ bv1 32) x_month) (and (= (_ bv1 32) x_month) (bvsle (_ bv1 32) x_day)))))
 (let (($x5124 (= (_ bv2023 32) x_year)))
 (or (bvslt (_ bv2023 32) x_year) (and $x5124 $x3499)))))
(assert
 (let (($x1560 (or (bvsgt (_ bv12 32) x_month) (and (= (_ bv12 32) x_month) (bvsge (_ bv31 32) x_day)))))
 (let (($x5124 (= (_ bv2023 32) x_year)))
 (or (bvsgt (_ bv2023 32) x_year) (and $x5124 $x1560)))))
(assert
 (let ((?x1548 (bvadd x_month (bvadd (bvmul (_ bv0 32) (_ bv12 32)) (_ bv0 32)))))
(let ((?x3734 (bvsub (ite (bvuge ?x1548 (_ bv2147483648 32)) (bvsub ?x1548 (_ bv0 32)) ?x1548) (_ bv1 32))))
(let ((?x4067 (bvsmod ?x3734 (_ bv12 32))))
(let ((?x410 (bvadd ?x4067 (_ bv1 32))))
(let (($x699 (= (_ bv11 32) ?x410)))
(let (($x649 (= (_ bv9 32) ?x410)))
(let (($x2196 (= (_ bv6 32) ?x410)))
(let (($x3741 (= (_ bv4 32) ?x410)))
(let ((?x1865 (bvsdiv ?x3734 (_ bv12 32))))
(let ((?x996 (ite (and (bvuge ?x3734 (_ bv2147483648 32)) (and (distinct (_ bv0 32) ?x4067) true)) (bvsub ?x1865 (_ bv1 32)) ?x1865)))
(let ((?x3949 (bvadd x_year ?x996)))
(let (($x507 (or (and (= (_ bv0 32) (bvsmod ?x3949 (_ bv4 32))) (and (distinct (_ bv0 32) (bvsmod ?x3949 (_ bv100 32))) true)) (= (_ bv0 32) (bvsmod ?x3949 (_ bv400 32))))))
(let (($x3930 (= (_ bv2 32) ?x410)))
(let ((?x3724 (ite $x3930 (ite $x507 (_ bv29 32) (_ bv28 32)) (ite (or $x3741 $x2196 $x649 $x699) (_ bv30 32) (_ bv31 32)))))
(let (($x2809 (bvsgt (_ bv1 32) x_day)))
(let ((?x959 (ite $x2809 (_ bv1 32) (ite (bvsgt x_day ?x3724) ?x3724 x_day))))
(let ((?x6454 (ite (bvsgt (_ bv1 32) ?x959) (_ bv1 32) (ite (bvsgt ?x959 ?x3724) ?x3724 ?x959))))
(let ((?x5012 (ite $x3930 (ite $x507 (_ bv31 32) (_ bv31 32)) (ite (= (_ bv1 32) ?x410) (ite $x507 (_ bv0 32) (_ bv0 32)) (_ bv0 32)))))
(let ((?x3300 (ite $x3741 (ite $x507 (_ bv91 32) (_ bv90 32)) (ite (= (_ bv3 32) ?x410) (ite $x507 (_ bv60 32) (_ bv59 32)) ?x5012))))
(let ((?x1617 (ite $x2196 (ite $x507 (_ bv152 32) (_ bv151 32)) (ite (= (_ bv5 32) ?x410) (ite $x507 (_ bv121 32) (_ bv120 32)) ?x3300))))
(let ((?x804 (ite (= (_ bv8 32) ?x410) (ite $x507 (_ bv213 32) (_ bv212 32)) (ite (= (_ bv7 32) ?x410) (ite $x507 (_ bv182 32) (_ bv181 32)) ?x1617))))
(let ((?x2761 (ite (= (_ bv10 32) ?x410) (ite $x507 (_ bv274 32) (_ bv273 32)) (ite $x649 (ite $x507 (_ bv244 32) (_ bv243 32)) ?x804))))
(let ((?x1618 (ite (= (_ bv12 32) ?x410) (ite $x507 (_ bv335 32) (_ bv334 32)) (ite $x699 (ite $x507 (_ bv305 32) (_ bv304 32)) ?x2761))))
(let ((?x2861 (bvadd (bvmul (_ bv365 32) (bvsub ?x3949 (_ bv1 32))) (bvsdiv (bvsub ?x3949 (_ bv1 32)) (_ bv4 32)))))
(let ((?x2825 (bvadd (bvsub ?x2861 (bvsdiv (bvsub ?x3949 (_ bv1 32)) (_ bv100 32))) (bvsdiv (bvsub ?x3949 (_ bv1 32)) (_ bv400 32)))))
(let ((?x2068 (bvadd (bvadd (bvsub (bvadd (bvadd ?x2825 ?x1618) (bvsub ?x6454 (_ bv1 32))) (_ bv730179 32)) (_ bv61 32)) (_ bv730179 32))))
(let ((?x1213 (bvsmod ?x2068 (_ bv146097 32))))
(let ((?x1520 (bvsdiv ?x1213 (_ bv36524 32))))
(let ((?x884 (ite (bvsle (_ bv4 32) ?x1520) (_ bv3 32) ?x1520)))
(let ((?x2850 (bvsub ?x1213 (bvmul ?x884 (_ bv36524 32)))))
(let ((?x1247 (bvsmod ?x2850 (_ bv1461 32))))
(let ((?x5549 (bvsdiv ?x1247 (_ bv365 32))))
(let ((?x3866 (ite (bvsle (_ bv4 32) ?x5549) (_ bv3 32) ?x5549)))
(let ((?x1955 (bvadd (bvadd (bvmul (bvsdiv ?x2068 (_ bv146097 32)) (_ bv400 32)) (bvmul ?x884 (_ bv100 32))) (bvmul (bvsdiv ?x2850 (_ bv1461 32)) (_ bv4 32)))))
(let ((?x3047 (bvadd (bvadd ?x1955 ?x3866) (_ bv1 32))))
(let (($x2821 (or (and (= (_ bv0 32) (bvsmod ?x3047 (_ bv4 32))) (and (distinct (_ bv0 32) (bvsmod ?x3047 (_ bv100 32))) true)) (= (_ bv0 32) (bvsmod ?x3047 (_ bv400 32))))))
(let ((?x1087 (bvsub ?x1247 (bvmul ?x3866 (_ bv365 32)))))
(let ((?x3826 (ite $x2821 (_ bv31 32) (_ bv31 32))))
(let (($x3880 (bvsge ?x1087 ?x3826)))
(let ((?x2526 (ite $x3880 (bvadd (bvsub ?x1087 ?x3826) (_ bv1 32)) (bvadd (bvsub ?x1087 (ite $x2821 (_ bv0 32) (_ bv0 32))) (_ bv1 32)))))
(let ((?x7532 (ite $x2821 (_ bv60 32) (_ bv59 32))))
(let (($x4538 (bvsge ?x1087 ?x7532)))
(let ((?x1973 (ite $x2821 (_ bv91 32) (_ bv90 32))))
(let (($x687 (bvsge ?x1087 ?x1973)))
(let ((?x980 (ite $x687 (bvadd (bvsub ?x1087 ?x1973) (_ bv1 32)) (ite $x4538 (bvadd (bvsub ?x1087 ?x7532) (_ bv1 32)) ?x2526))))
(let ((?x778 (ite $x2821 (_ bv121 32) (_ bv120 32))))
(let (($x5781 (bvsge ?x1087 ?x778)))
(let ((?x6148 (ite $x2821 (_ bv152 32) (_ bv151 32))))
(let (($x4599 (bvsge ?x1087 ?x6148)))
(let ((?x2918 (ite $x4599 (bvadd (bvsub ?x1087 ?x6148) (_ bv1 32)) (ite $x5781 (bvadd (bvsub ?x1087 ?x778) (_ bv1 32)) ?x980))))
(let ((?x2336 (ite $x2821 (_ bv182 32) (_ bv181 32))))
(let (($x5447 (bvsge ?x1087 ?x2336)))
(let ((?x3216 (ite $x2821 (_ bv213 32) (_ bv212 32))))
(let (($x3931 (bvsge ?x1087 ?x3216)))
(let ((?x2844 (ite $x3931 (bvadd (bvsub ?x1087 ?x3216) (_ bv1 32)) (ite $x5447 (bvadd (bvsub ?x1087 ?x2336) (_ bv1 32)) ?x2918))))
(let ((?x2146 (ite $x2821 (_ bv244 32) (_ bv243 32))))
(let (($x837 (bvsge ?x1087 ?x2146)))
(let ((?x6758 (ite $x2821 (_ bv274 32) (_ bv273 32))))
(let (($x1172 (bvsge ?x1087 ?x6758)))
(let ((?x6431 (ite $x1172 (bvadd (bvsub ?x1087 ?x6758) (_ bv1 32)) (ite $x837 (bvadd (bvsub ?x1087 ?x2146) (_ bv1 32)) ?x2844))))
(let ((?x5983 (ite $x2821 (_ bv305 32) (_ bv304 32))))
(let (($x5063 (bvsge ?x1087 ?x5983)))
(let ((?x487 (ite $x2821 (_ bv335 32) (_ bv334 32))))
(let (($x7036 (bvsge ?x1087 ?x487)))
(let ((?x2655 (ite $x7036 (bvadd (bvsub ?x1087 ?x487) (_ bv1 32)) (ite $x5063 (bvadd (bvsub ?x1087 ?x5983) (_ bv1 32)) ?x6431))))
(let (($x2441 (= (_ bv0 32) (_ bv61 32))))
(let ((?x1375 (bvadd x_month (bvadd (bvmul (_ bv0 32) (_ bv12 32)) (_ bv2 32)))))
(let ((?x4732 (bvsub (ite (bvuge ?x1375 (_ bv2147483648 32)) (bvsub ?x1375 (_ bv0 32)) ?x1375) (_ bv1 32))))
(let ((?x5838 (bvsmod ?x4732 (_ bv12 32))))
(let ((?x3923 (bvadd ?x5838 (_ bv1 32))))
(let (($x4549 (= (_ bv11 32) ?x3923)))
(let (($x690 (= (_ bv9 32) ?x3923)))
(let (($x5271 (= (_ bv6 32) ?x3923)))
(let (($x6947 (= (_ bv4 32) ?x3923)))
(let ((?x3113 (bvsdiv ?x4732 (_ bv12 32))))
(let ((?x5145 (ite (and (bvuge ?x4732 (_ bv2147483648 32)) (and (distinct (_ bv0 32) ?x5838) true)) (bvsub ?x3113 (_ bv1 32)) ?x3113)))
(let ((?x3600 (bvadd x_year ?x5145)))
(let (($x3062 (or (and (= (_ bv0 32) (bvsmod ?x3600 (_ bv4 32))) (and (distinct (_ bv0 32) (bvsmod ?x3600 (_ bv100 32))) true)) (= (_ bv0 32) (bvsmod ?x3600 (_ bv400 32))))))
(let (($x4678 (= (_ bv2 32) ?x3923)))
(let ((?x6762 (ite $x4678 (ite $x3062 (_ bv29 32) (_ bv28 32)) (ite (or $x6947 $x5271 $x690 $x4549) (_ bv30 32) (_ bv31 32)))))
(let ((?x2697 (ite $x2809 (_ bv1 32) (ite (bvsgt x_day ?x6762) ?x6762 x_day))))
(let ((?x8150 (ite (bvsgt (_ bv1 32) ?x2697) (_ bv1 32) (ite (bvsgt ?x2697 ?x6762) ?x6762 ?x2697))))
(let ((?x5515 (ite $x4678 (ite $x3062 (_ bv31 32) (_ bv31 32)) (ite (= (_ bv1 32) ?x3923) (ite $x3062 (_ bv0 32) (_ bv0 32)) (_ bv0 32)))))
(let ((?x5820 (ite $x6947 (ite $x3062 (_ bv91 32) (_ bv90 32)) (ite (= (_ bv3 32) ?x3923) (ite $x3062 (_ bv60 32) (_ bv59 32)) ?x5515))))
(let ((?x3476 (ite $x5271 (ite $x3062 (_ bv152 32) (_ bv151 32)) (ite (= (_ bv5 32) ?x3923) (ite $x3062 (_ bv121 32) (_ bv120 32)) ?x5820))))
(let ((?x8249 (ite (= (_ bv8 32) ?x3923) (ite $x3062 (_ bv213 32) (_ bv212 32)) (ite (= (_ bv7 32) ?x3923) (ite $x3062 (_ bv182 32) (_ bv181 32)) ?x3476))))
(let ((?x1043 (ite (= (_ bv10 32) ?x3923) (ite $x3062 (_ bv274 32) (_ bv273 32)) (ite $x690 (ite $x3062 (_ bv244 32) (_ bv243 32)) ?x8249))))
(let ((?x3630 (ite (= (_ bv12 32) ?x3923) (ite $x3062 (_ bv335 32) (_ bv334 32)) (ite $x4549 (ite $x3062 (_ bv305 32) (_ bv304 32)) ?x1043))))
(let ((?x1289 (bvadd (bvmul (_ bv365 32) (bvsub ?x3600 (_ bv1 32))) (bvsdiv (bvsub ?x3600 (_ bv1 32)) (_ bv4 32)))))
(let ((?x6867 (bvadd (bvsub ?x1289 (bvsdiv (bvsub ?x3600 (_ bv1 32)) (_ bv100 32))) (bvsdiv (bvsub ?x3600 (_ bv1 32)) (_ bv400 32)))))
(let ((?x1370 (bvadd (bvadd (bvsub (bvadd (bvadd ?x6867 ?x3630) (bvsub ?x8150 (_ bv1 32))) (_ bv730179 32)) (_ bv0 32)) (_ bv730179 32))))
(let ((?x5726 (bvsmod ?x1370 (_ bv146097 32))))
(let ((?x4486 (bvsdiv ?x5726 (_ bv36524 32))))
(let ((?x555 (ite (bvsle (_ bv4 32) ?x4486) (_ bv3 32) ?x4486)))
(let ((?x2695 (bvsub ?x5726 (bvmul ?x555 (_ bv36524 32)))))
(let ((?x3988 (bvsmod ?x2695 (_ bv1461 32))))
(let ((?x3440 (bvsdiv ?x3988 (_ bv365 32))))
(let ((?x654 (ite (bvsle (_ bv4 32) ?x3440) (_ bv3 32) ?x3440)))
(let ((?x3087 (bvadd (bvadd (bvmul (bvsdiv ?x1370 (_ bv146097 32)) (_ bv400 32)) (bvmul ?x555 (_ bv100 32))) (bvmul (bvsdiv ?x2695 (_ bv1461 32)) (_ bv4 32)))))
(let ((?x6477 (bvadd (bvadd ?x3087 ?x654) (_ bv1 32))))
(let (($x3772 (or (and (= (_ bv0 32) (bvsmod ?x6477 (_ bv4 32))) (and (distinct (_ bv0 32) (bvsmod ?x6477 (_ bv100 32))) true)) (= (_ bv0 32) (bvsmod ?x6477 (_ bv400 32))))))
(let ((?x6652 (bvsub ?x3988 (bvmul ?x654 (_ bv365 32)))))
(let ((?x1627 (ite $x3772 (_ bv31 32) (_ bv31 32))))
(let (($x3621 (bvsge ?x6652 ?x1627)))
(let ((?x1953 (ite $x3621 (bvadd (bvsub ?x6652 ?x1627) (_ bv1 32)) (bvadd (bvsub ?x6652 (ite $x3772 (_ bv0 32) (_ bv0 32))) (_ bv1 32)))))
(let ((?x706 (ite $x3772 (_ bv60 32) (_ bv59 32))))
(let (($x1902 (bvsge ?x6652 ?x706)))
(let ((?x5071 (ite $x3772 (_ bv91 32) (_ bv90 32))))
(let (($x2054 (bvsge ?x6652 ?x5071)))
(let ((?x2832 (ite $x2054 (bvadd (bvsub ?x6652 ?x5071) (_ bv1 32)) (ite $x1902 (bvadd (bvsub ?x6652 ?x706) (_ bv1 32)) ?x1953))))
(let ((?x4739 (ite $x3772 (_ bv121 32) (_ bv120 32))))
(let (($x877 (bvsge ?x6652 ?x4739)))
(let ((?x5252 (ite $x3772 (_ bv152 32) (_ bv151 32))))
(let (($x6125 (bvsge ?x6652 ?x5252)))
(let ((?x2244 (ite $x6125 (bvadd (bvsub ?x6652 ?x5252) (_ bv1 32)) (ite $x877 (bvadd (bvsub ?x6652 ?x4739) (_ bv1 32)) ?x2832))))
(let ((?x2091 (ite $x3772 (_ bv182 32) (_ bv181 32))))
(let (($x2883 (bvsge ?x6652 ?x2091)))
(let ((?x8219 (ite $x3772 (_ bv213 32) (_ bv212 32))))
(let (($x2451 (bvsge ?x6652 ?x8219)))
(let ((?x3639 (ite $x2451 (bvadd (bvsub ?x6652 ?x8219) (_ bv1 32)) (ite $x2883 (bvadd (bvsub ?x6652 ?x2091) (_ bv1 32)) ?x2244))))
(let ((?x1147 (ite $x3772 (_ bv244 32) (_ bv243 32))))
(let (($x2185 (bvsge ?x6652 ?x1147)))
(let ((?x672 (ite $x3772 (_ bv274 32) (_ bv273 32))))
(let (($x4780 (bvsge ?x6652 ?x672)))
(let ((?x694 (ite $x4780 (bvadd (bvsub ?x6652 ?x672) (_ bv1 32)) (ite $x2185 (bvadd (bvsub ?x6652 ?x1147) (_ bv1 32)) ?x3639))))
(let ((?x562 (ite $x3772 (_ bv305 32) (_ bv304 32))))
(let (($x1834 (bvsge ?x6652 ?x562)))
(let ((?x2256 (ite $x3772 (_ bv335 32) (_ bv334 32))))
(let (($x2214 (bvsge ?x6652 ?x2256)))
(let ((?x1780 (ite $x2214 (bvadd (bvsub ?x6652 ?x2256) (_ bv1 32)) (ite $x1834 (bvadd (bvsub ?x6652 ?x562) (_ bv1 32)) ?x694))))
(let (($x7876 (= (_ bv0 32) (_ bv0 32))))
(let ((?x1475 (ite $x4599 (_ bv6 32) (ite $x5781 (_ bv5 32) (ite $x687 (_ bv4 32) (ite $x4538 (_ bv3 32) (ite $x3880 (_ bv2 32) (_ bv1 32))))))))
(let ((?x1852 (ite $x5063 (_ bv11 32) (ite $x1172 (_ bv10 32) (ite $x837 (_ bv9 32) (ite $x3931 (_ bv8 32) (ite $x5447 (_ bv7 32) ?x1475)))))))
(let ((?x4673 (ite $x7036 (_ bv12 32) ?x1852)))
(let ((?x4371 (ite $x6125 (_ bv6 32) (ite $x877 (_ bv5 32) (ite $x2054 (_ bv4 32) (ite $x1902 (_ bv3 32) (ite $x3621 (_ bv2 32) (_ bv1 32))))))))
(let ((?x515 (ite $x1834 (_ bv11 32) (ite $x4780 (_ bv10 32) (ite $x2185 (_ bv9 32) (ite $x2451 (_ bv8 32) (ite $x2883 (_ bv7 32) ?x4371)))))))
(and (= (ite $x7876 ?x3600 ?x6477) (ite $x2441 ?x3949 ?x3047)) (= (ite $x7876 ?x3923 (ite $x2214 (_ bv12 32) ?x515)) (ite $x2441 ?x410 ?x4673)) (= (ite $x7876 ?x8150 ?x1780) (ite $x2441 ?x6454 ?x2655))))))))))))))))))))))))))))))))))))))))))))))))))))))))))))))))))))))))))))))))))))))))))))))))))))))))))))))))))))))))))))))))))))))))))))
(check-sat)
